10
20
1020002
0
0
97 70 33 91 31 69 91 69 8 32 79 48 11 82 37 72 11 20 83 80 
1
0
98 73 42 87 30 63 88 70 6 38 86 52 14 89 35 77 11 21 82 88 
2
0
89 77 36 87 23 62 85 72 13 33 79 51 13 85 29 74 6 19 74 82 
3
0
95 69 36 83 31 69 86 79 6 37 85 46 15 88 38 71 6 13 76 80 
4
0
97 74 39 82 28 71 92 69 6 38 80 43 17 85 28 75 3 22 73 87 
5
0
95 68 34 82 25 65 94 77 4 31 81 47 12 89 29 70 3 17 81 86 
6
0
92 74 41 82 27 70 90 77 13 36 90 44 15 80 32 72 10 23 73 83 
7
0
96 69 33 83 27 63 88 74 6 40 86 52 17 90 30 79 5 22 76 85 
8
0
95 72 38 81 28 71 91 74 10 41 80 44 16 87 36 80 11 21 76 87 
9
0
98 72 38 86 34 63 88 76 5 39 83 43 8 88 36 75 8 21 81 82 
